set PROD:= ket bar chi;
set ING:= suc zuc oli ace ing;

param: Prezzo CostoBase Q_Prodotto A_Min A_Max D_Min D_Max U_Minimo:=
ket	   2	  	0.4	    3100	   	30	 	50	   	20	 	40	20
bar    2.2		0.8		2300		20		30		15		25	30
chi	   3		1.2		2400		15		35		30		45	40;

param: CostoIng Dolcezza Acidita Umami:=
suc	0.3	20	30	10
zuc	0.1	100	0	0
oli	1	5	20	45
ace	0.2	0	100	0
ing	2.1	30	0	99;